c Random generated cnf formula, satisfiable: false
p cnf 10 50
8 10 -1 0
-10 8 -4 0
-8 10 -6 0
3 10 9 0
-2 -7 3 0
-1 10 9 0
10 9 8 0
-6 -3 -4 0
-3 9 -10 0
7 1 -10 0
-2 10 -4 0
-6 8 -4 0
-8 -3 6 0
-8 -2 -9 0
-6 3 -2 0
4 7 -9 0
8 10 -1 0
8 4 -3 0
-8 3 4 0
-6 -7 -4 0
3 1 -10 0
-8 -4 -5 0
-9 -6 2 0
-4 1 2 0
-2 7 -3 0
-2 -9 4 0
-2 6 8 0
-6 -1 -3 0
4 -9 -10 0
-1 3 -7 0
-10 7 3 0
3 2 6 0
-2 3 -1 0
-1 3 -6 0
8 -6 -9 0
4 9 1 0
5 -3 -6 0
-8 3 9 0
3 6 -5 0
2 4 -9 0
4 5 -1 0
1 -4 -6 0
-5 6 -3 0
10 4 1 0
-2 -7 5 0
1 -4 5 0
1 -4 -9 0
8 -7 -10 0
6 2 10 0
-2 -8 -5 0
